Route #1: 17 40 3 44 32 9 39 72 12 26 67
Route #2: 7 35 53 14 59 66 11 65 38
Route #3: 58 10 31 55 25 50 18 24 49 16 63 33
Route #4: 73 1 43 23 56 41 42 64 22 61 28 62
Route #5: 21 69 36 71 60 70 20 37 15 57 13 54 19 8 46
Route #6: 34 52 27 45 29 5 47 48 30 74 2
Route #7: 51 6 68 4 75
Cost 718